% Logging successfully configured
%%%mzn-stat: initTime=0.052953847
%%%mzn-stat: objective=328
%%%mzn-stat: nodes=10873
%%%mzn-stat: restarts=0
%%%mzn-stat: peakDepth=1657
%%%mzn-stat: solveTime=2.00283828
%%%mzn-stat: variables=2474
%%%mzn-stat: propagators=6992
%%%mzn-stat: failures=6422
%%%mzn-stat: propagations=4339747
%%%mzn-stat: nogoods=6422
%%%mzn-stat: numAtomicConstraintsPropagated=0
%%%mzn-stat: circuitNumber4951PropagationsThatFoundConflict=412
%%%mzn-stat: circuitNumber4951TotalFixedEdgesAtConflict=36949
%%%mzn-stat: circuitNumber4951NumberOfConflicts=412
%%%mzn-stat: circuitNumber4951PropagationsThatPruned=1727
%%%mzn-stat: circuitNumber4951PropagationsTotal=9764
%%%mzn-stat: AverageConflictSize=9.709747742136406
%%%mzn-stat: NumUnitNogoodsLearned=0
%%%mzn-stat: AverageLearnedNogoodLength=31.772500778573654
%%%mzn-stat: AverageBacktrackAmount=0
%%%mzn-stat: AverageLbd=16.605107443164123
%%%mzn-stat: 2AutonomousSearchNumBackupCalled=1570
%%%mzn-stat: 2AutonomousSearchNumPredicatesRemoved=0
%%%mzn-stat: 2AutonomousSearchNumCalls=1571
%%%mzn-stat: 2AutonomousSearchNumPredicatesAdded=1828
%%%mzn-stat: 2AutonomousSearchAverageSizeOfHeap=1.1635900700190962
%%%mzn-stat: 2AutonomousSearchNumAssignedPredicatesEncountered=1828
%%%mzn-stat-end
maxleg = 328;
succ = array1d(1..100,[2, 5, 7, 11, 27, 15, 6, 10, 3, 14, 13, 9, 23, 33, 1, 17, 12, 24, 21, 8, 30, 16, 42, 34, 20, 4, 18, 22, 36, 40, 25, 28, 51, 29, 38, 35, 31, 47, 45, 41, 32, 48, 19, 43, 54, 37, 57, 60, 26, 44, 52, 56, 62, 53, 39, 58, 61, 69, 65, 71, 82, 50, 46, 73, 68, 49, 63, 67, 80, 59, 83, 70, 74, 93, 64, 72, 78, 55, 87, 84, 91, 98, 86, 92, 75, 89, 66, 85, 81, 79, 77, 99, 95, 96, 94, 76, 90, 100, 97, 88]);
% time elapsed: 12.57 s
----------
%%%mzn-stat: initTime=0.052953847
%%%mzn-stat: objective=325
%%%mzn-stat: nodes=12532
%%%mzn-stat: restarts=0
%%%mzn-stat: peakDepth=1657
%%%mzn-stat: solveTime=2.040875577
%%%mzn-stat: variables=2474
%%%mzn-stat: propagators=6992
%%%mzn-stat: failures=6463
%%%mzn-stat: propagations=4377028
%%%mzn-stat: nogoods=6463
%%%mzn-stat: numAtomicConstraintsPropagated=0
%%%mzn-stat: circuitNumber4951PropagationsThatFoundConflict=435
%%%mzn-stat: circuitNumber4951TotalFixedEdgesAtConflict=38751
%%%mzn-stat: circuitNumber4951NumberOfConflicts=435
%%%mzn-stat: circuitNumber4951PropagationsThatPruned=1781
%%%mzn-stat: circuitNumber4951PropagationsTotal=9974
%%%mzn-stat: AverageConflictSize=9.871421940275415
%%%mzn-stat: NumUnitNogoodsLearned=0
%%%mzn-stat: AverageLearnedNogoodLength=32.016710505956986
%%%mzn-stat: AverageBacktrackAmount=0
%%%mzn-stat: AverageLbd=16.86028160297076
%%%mzn-stat: 2AutonomousSearchNumBackupCalled=3102
%%%mzn-stat: 2AutonomousSearchNumPredicatesRemoved=0
%%%mzn-stat: 2AutonomousSearchNumCalls=3104
%%%mzn-stat: 2AutonomousSearchNumPredicatesAdded=2745
%%%mzn-stat: 2AutonomousSearchAverageSizeOfHeap=1.1804123711340206
%%%mzn-stat: 2AutonomousSearchNumAssignedPredicatesEncountered=3664
%%%mzn-stat-end
maxleg = 325;
succ = array1d(1..100,[2, 5, 7, 11, 27, 15, 6, 10, 3, 14, 13, 9, 23, 33, 1, 17, 12, 24, 21, 8, 30, 16, 42, 34, 20, 4, 18, 22, 36, 40, 25, 28, 52, 29, 38, 35, 31, 47, 45, 41, 32, 48, 19, 43, 54, 37, 57, 60, 26, 44, 56, 51, 62, 53, 39, 58, 61, 69, 65, 71, 82, 50, 46, 73, 68, 49, 63, 67, 80, 59, 83, 70, 74, 93, 64, 72, 78, 55, 87, 84, 91, 98, 86, 92, 75, 89, 66, 85, 81, 79, 77, 99, 95, 96, 94, 76, 90, 100, 97, 88]);
% time elapsed: 12.61 s
----------
%%%mzn-stat: initTime=0.052953847
%%%mzn-stat: objective=324
%%%mzn-stat: nodes=14141
%%%mzn-stat: restarts=0
%%%mzn-stat: peakDepth=1657
%%%mzn-stat: solveTime=2.047544591
%%%mzn-stat: variables=2474
%%%mzn-stat: propagators=6992
%%%mzn-stat: failures=6464
%%%mzn-stat: propagations=4391160
%%%mzn-stat: nogoods=6464
%%%mzn-stat: numAtomicConstraintsPropagated=0
%%%mzn-stat: circuitNumber4951PropagationsThatFoundConflict=435
%%%mzn-stat: circuitNumber4951TotalFixedEdgesAtConflict=38751
%%%mzn-stat: circuitNumber4951NumberOfConflicts=435
%%%mzn-stat: circuitNumber4951PropagationsThatPruned=1785
%%%mzn-stat: circuitNumber4951PropagationsTotal=10064
%%%mzn-stat: AverageConflictSize=9.871751237623762
%%%mzn-stat: NumUnitNogoodsLearned=0
%%%mzn-stat: AverageLearnedNogoodLength=32.019647277227726
%%%mzn-stat: AverageBacktrackAmount=0
%%%mzn-stat: AverageLbd=16.862623762376238
%%%mzn-stat: 2AutonomousSearchNumBackupCalled=4626
%%%mzn-stat: 2AutonomousSearchNumPredicatesRemoved=0
%%%mzn-stat: 2AutonomousSearchNumCalls=4629
%%%mzn-stat: 2AutonomousSearchNumPredicatesAdded=2970
%%%mzn-stat: 2AutonomousSearchAverageSizeOfHeap=1.188593648736228
%%%mzn-stat: 2AutonomousSearchNumAssignedPredicatesEncountered=5502
%%%mzn-stat-end
maxleg = 324;
succ = array1d(1..100,[2, 5, 7, 11, 27, 15, 6, 10, 3, 14, 13, 9, 23, 33, 1, 17, 12, 24, 21, 8, 30, 16, 42, 34, 20, 4, 18, 22, 36, 40, 25, 28, 52, 29, 38, 35, 31, 47, 45, 41, 32, 48, 19, 43, 54, 37, 57, 60, 26, 44, 56, 51, 62, 53, 39, 58, 61, 69, 65, 71, 82, 50, 46, 73, 68, 49, 63, 67, 80, 59, 83, 70, 74, 93, 64, 72, 78, 79, 87, 84, 91, 98, 86, 77, 75, 89, 66, 85, 81, 55, 92, 99, 95, 96, 94, 76, 90, 100, 97, 88]);
% time elapsed: 12.63 s
----------
%%%mzn-stat: initTime=0.052953847
%%%mzn-stat: objective=304
%%%mzn-stat: nodes=15757
%%%mzn-stat: restarts=0
%%%mzn-stat: peakDepth=1657
%%%mzn-stat: solveTime=2.0648009959999998
%%%mzn-stat: variables=2474
%%%mzn-stat: propagators=6992
%%%mzn-stat: failures=6489
%%%mzn-stat: propagations=4419175
%%%mzn-stat: nogoods=6489
%%%mzn-stat: numAtomicConstraintsPropagated=0
%%%mzn-stat: circuitNumber4951PropagationsThatFoundConflict=435
%%%mzn-stat: circuitNumber4951TotalFixedEdgesAtConflict=38751
%%%mzn-stat: circuitNumber4951NumberOfConflicts=435
%%%mzn-stat: circuitNumber4951PropagationsThatPruned=1802
%%%mzn-stat: circuitNumber4951PropagationsTotal=10176
%%%mzn-stat: AverageConflictSize=9.889659423640007
%%%mzn-stat: NumUnitNogoodsLearned=0
%%%mzn-stat: AverageLearnedNogoodLength=32.0624133148405
%%%mzn-stat: AverageBacktrackAmount=0
%%%mzn-stat: AverageLbd=16.895361380798274
%%%mzn-stat: 2AutonomousSearchNumBackupCalled=6133
%%%mzn-stat: 2AutonomousSearchNumPredicatesRemoved=0
%%%mzn-stat: 2AutonomousSearchNumCalls=6137
%%%mzn-stat: 2AutonomousSearchNumPredicatesAdded=3749
%%%mzn-stat: 2AutonomousSearchAverageSizeOfHeap=1.2160664819944598
%%%mzn-stat: 2AutonomousSearchNumAssignedPredicatesEncountered=7463
%%%mzn-stat-end
maxleg = 304;
succ = array1d(1..100,[2, 5, 7, 11, 27, 18, 6, 10, 3, 14, 13, 9, 23, 33, 1, 17, 12, 15, 21, 8, 30, 16, 42, 34, 20, 4, 29, 22, 36, 40, 25, 28, 52, 35, 38, 51, 31, 47, 45, 41, 32, 24, 19, 43, 54, 37, 57, 60, 26, 44, 56, 58, 62, 53, 39, 59, 50, 69, 65, 71, 82, 81, 46, 73, 68, 49, 63, 67, 70, 72, 83, 76, 48, 64, 74, 96, 78, 79, 87, 84, 86, 98, 92, 99, 75, 89, 66, 85, 61, 55, 77, 91, 80, 95, 93, 94, 90, 100, 97, 88]);
% time elapsed: 12.65 s
----------
%%%mzn-stat: initTime=0.052953847
%%%mzn-stat: objective=294
%%%mzn-stat: nodes=79434
%%%mzn-stat: restarts=1
%%%mzn-stat: peakDepth=1657
%%%mzn-stat: solveTime=26.423417389
%%%mzn-stat: variables=2474
%%%mzn-stat: propagators=6992
%%%mzn-stat: failures=59777
%%%mzn-stat: propagations=41256932
%%%mzn-stat: nogoods=59777
%%%mzn-stat: numAtomicConstraintsPropagated=0
%%%mzn-stat: circuitNumber4951PropagationsThatFoundConflict=1774
%%%mzn-stat: circuitNumber4951TotalFixedEdgesAtConflict=155197
%%%mzn-stat: circuitNumber4951NumberOfConflicts=1774
%%%mzn-stat: circuitNumber4951PropagationsThatPruned=22679
%%%mzn-stat: circuitNumber4951PropagationsTotal=76462
%%%mzn-stat: AverageConflictSize=18.395603660270673
%%%mzn-stat: NumUnitNogoodsLearned=0
%%%mzn-stat: AverageLearnedNogoodLength=50.00966927078977
%%%mzn-stat: AverageBacktrackAmount=0
%%%mzn-stat: AverageLbd=22.632952473359317
%%%mzn-stat: 2AutonomousSearchNumBackupCalled=7606
%%%mzn-stat: 2AutonomousSearchNumPredicatesRemoved=0
%%%mzn-stat: 2AutonomousSearchNumCalls=7775
%%%mzn-stat: 2AutonomousSearchNumPredicatesAdded=8005
%%%mzn-stat: 2AutonomousSearchAverageSizeOfHeap=39.346495176848876
%%%mzn-stat: 2AutonomousSearchNumAssignedPredicatesEncountered=16959
%%%mzn-stat-end
maxleg = 294;
succ = array1d(1..100,[2, 5, 7, 11, 27, 18, 6, 10, 3, 33, 13, 9, 23, 8, 1, 17, 12, 15, 21, 63, 30, 16, 42, 34, 20, 4, 29, 54, 36, 40, 25, 22, 52, 35, 38, 51, 14, 47, 45, 41, 32, 24, 19, 43, 28, 37, 57, 60, 26, 44, 56, 58, 62, 53, 39, 59, 50, 69, 65, 71, 82, 81, 46, 73, 68, 49, 31, 67, 70, 72, 83, 76, 48, 64, 74, 96, 78, 79, 87, 84, 86, 98, 92, 99, 75, 89, 66, 85, 61, 55, 77, 91, 80, 95, 93, 94, 90, 100, 97, 88]);
% time elapsed: 37.02 s
----------
%%%mzn-stat: initTime=0.052953847
%%%mzn-stat: objective=290
%%%mzn-stat: nodes=96874
%%%mzn-stat: restarts=1
%%%mzn-stat: peakDepth=1657
%%%mzn-stat: solveTime=32.506550172
%%%mzn-stat: variables=2474
%%%mzn-stat: propagators=6992
%%%mzn-stat: failures=73312
%%%mzn-stat: propagations=50276678
%%%mzn-stat: nogoods=73312
%%%mzn-stat: numAtomicConstraintsPropagated=0
%%%mzn-stat: circuitNumber4951PropagationsThatFoundConflict=2065
%%%mzn-stat: circuitNumber4951TotalFixedEdgesAtConflict=180523
%%%mzn-stat: circuitNumber4951NumberOfConflicts=2065
%%%mzn-stat: circuitNumber4951PropagationsThatPruned=26817
%%%mzn-stat: circuitNumber4951PropagationsTotal=92134
%%%mzn-stat: AverageConflictSize=18.409605521606284
%%%mzn-stat: NumUnitNogoodsLearned=0
%%%mzn-stat: AverageLearnedNogoodLength=49.976524989087736
%%%mzn-stat: AverageBacktrackAmount=0
%%%mzn-stat: AverageLbd=22.751541357485813
%%%mzn-stat: 2AutonomousSearchNumBackupCalled=9078
%%%mzn-stat: 2AutonomousSearchNumPredicatesRemoved=0
%%%mzn-stat: 2AutonomousSearchNumCalls=9248
%%%mzn-stat: 2AutonomousSearchNumPredicatesAdded=10138
%%%mzn-stat: 2AutonomousSearchAverageSizeOfHeap=33.56866349480969
%%%mzn-stat: 2AutonomousSearchNumAssignedPredicatesEncountered=21483
%%%mzn-stat-end
maxleg = 290;
succ = array1d(1..100,[2, 5, 7, 11, 27, 18, 6, 10, 3, 14, 13, 9, 23, 37, 1, 17, 12, 15, 21, 8, 30, 16, 42, 34, 20, 4, 29, 22, 36, 40, 25, 28, 52, 35, 38, 51, 46, 47, 31, 41, 32, 24, 19, 43, 39, 49, 57, 60, 26, 44, 56, 58, 54, 81, 45, 33, 50, 69, 65, 71, 82, 53, 66, 73, 68, 55, 63, 67, 80, 59, 83, 70, 48, 75, 85, 72, 78, 87, 90, 93, 91, 86, 61, 95, 88, 89, 79, 98, 62, 97, 77, 84, 74, 96, 94, 76, 99, 100, 92, 64]);
% time elapsed: 43.10 s
----------
%%%mzn-stat: initTime=0.052953847
%%%mzn-stat: objective=288
%%%mzn-stat: nodes=125938
%%%mzn-stat: restarts=1
%%%mzn-stat: peakDepth=1657
%%%mzn-stat: solveTime=47.294681365
%%%mzn-stat: variables=2474
%%%mzn-stat: propagators=6992
%%%mzn-stat: failures=97749
%%%mzn-stat: propagations=64964282
%%%mzn-stat: nogoods=97749
%%%mzn-stat: numAtomicConstraintsPropagated=0
%%%mzn-stat: circuitNumber4951PropagationsThatFoundConflict=2287
%%%mzn-stat: circuitNumber4951TotalFixedEdgesAtConflict=199737
%%%mzn-stat: circuitNumber4951NumberOfConflicts=2287
%%%mzn-stat: circuitNumber4951PropagationsThatPruned=34043
%%%mzn-stat: circuitNumber4951PropagationsTotal=118644
%%%mzn-stat: AverageConflictSize=19.50331972705603
%%%mzn-stat: NumUnitNogoodsLearned=0
%%%mzn-stat: AverageLearnedNogoodLength=53.011365845174886
%%%mzn-stat: AverageBacktrackAmount=0
%%%mzn-stat: AverageLbd=25.288524690789675
%%%mzn-stat: 2AutonomousSearchNumBackupCalled=10529
%%%mzn-stat: 2AutonomousSearchNumPredicatesRemoved=0
%%%mzn-stat: 2AutonomousSearchNumCalls=10700
%%%mzn-stat: 2AutonomousSearchNumPredicatesAdded=12669
%%%mzn-stat: 2AutonomousSearchAverageSizeOfHeap=29.463177570093457
%%%mzn-stat: 2AutonomousSearchNumAssignedPredicatesEncountered=26296
%%%mzn-stat-end
maxleg = 288;
succ = array1d(1..100,[2, 5, 7, 11, 27, 18, 6, 10, 3, 14, 13, 9, 23, 37, 1, 17, 12, 15, 21, 8, 30, 16, 42, 34, 20, 4, 29, 22, 36, 40, 25, 28, 52, 35, 38, 51, 46, 47, 31, 41, 44, 24, 19, 50, 32, 49, 57, 60, 26, 61, 56, 58, 54, 81, 39, 33, 43, 69, 65, 71, 82, 53, 66, 73, 68, 55, 63, 67, 70, 72, 83, 76, 48, 64, 74, 96, 45, 87, 90, 93, 91, 98, 86, 80, 75, 89, 79, 85, 62, 97, 92, 84, 95, 78, 94, 59, 99, 100, 77, 88]);
% time elapsed: 57.90 s
----------
%%%mzn-stat: initTime=0.052953847
%%%mzn-stat: objective=283
%%%mzn-stat: nodes=129837
%%%mzn-stat: restarts=2
%%%mzn-stat: peakDepth=1664
%%%mzn-stat: solveTime=48.553246193
%%%mzn-stat: variables=2474
%%%mzn-stat: propagators=6992
%%%mzn-stat: failures=99583
%%%mzn-stat: propagations=66142588
%%%mzn-stat: nogoods=99583
%%%mzn-stat: numAtomicConstraintsPropagated=0
%%%mzn-stat: circuitNumber4951PropagationsThatFoundConflict=2346
%%%mzn-stat: circuitNumber4951TotalFixedEdgesAtConflict=204749
%%%mzn-stat: circuitNumber4951NumberOfConflicts=2346
%%%mzn-stat: circuitNumber4951PropagationsThatPruned=34525
%%%mzn-stat: circuitNumber4951PropagationsTotal=120803
%%%mzn-stat: AverageConflictSize=19.631503369048936
%%%mzn-stat: NumUnitNogoodsLearned=0
%%%mzn-stat: AverageLearnedNogoodLength=53.23150537742386
%%%mzn-stat: AverageBacktrackAmount=0
%%%mzn-stat: AverageLbd=25.449042507255253
%%%mzn-stat: 2AutonomousSearchNumBackupCalled=11984
%%%mzn-stat: 2AutonomousSearchNumPredicatesRemoved=0
%%%mzn-stat: 2AutonomousSearchNumCalls=12364
%%%mzn-stat: 2AutonomousSearchNumPredicatesAdded=15541
%%%mzn-stat: 2AutonomousSearchAverageSizeOfHeap=84.09187965059851
%%%mzn-stat: 2AutonomousSearchNumAssignedPredicatesEncountered=41250
%%%mzn-stat-end
maxleg = 283;
succ = array1d(1..100,[5, 51, 7, 11, 27, 18, 6, 10, 3, 14, 13, 9, 23, 37, 1, 17, 12, 15, 21, 8, 30, 16, 42, 34, 20, 4, 29, 22, 36, 40, 25, 28, 52, 35, 38, 2, 46, 47, 31, 41, 44, 24, 19, 50, 32, 49, 57, 60, 26, 61, 56, 58, 54, 81, 39, 33, 43, 69, 65, 71, 82, 53, 66, 73, 68, 55, 63, 67, 70, 72, 83, 76, 48, 64, 74, 96, 45, 87, 90, 93, 91, 98, 86, 80, 75, 89, 79, 85, 62, 97, 92, 84, 95, 78, 94, 59, 99, 100, 77, 88]);
% time elapsed: 59.16 s
----------
%%%mzn-stat: initTime=0.052953847
%%%mzn-stat: objective=281
%%%mzn-stat: nodes=131367
%%%mzn-stat: restarts=2
%%%mzn-stat: peakDepth=1664
%%%mzn-stat: solveTime=48.560533389
%%%mzn-stat: variables=2474
%%%mzn-stat: propagators=6992
%%%mzn-stat: failures=99583
%%%mzn-stat: propagations=66155865
%%%mzn-stat: nogoods=99583
%%%mzn-stat: numAtomicConstraintsPropagated=0
%%%mzn-stat: circuitNumber4951PropagationsThatFoundConflict=2346
%%%mzn-stat: circuitNumber4951TotalFixedEdgesAtConflict=204749
%%%mzn-stat: circuitNumber4951NumberOfConflicts=2346
%%%mzn-stat: circuitNumber4951PropagationsThatPruned=34528
%%%mzn-stat: circuitNumber4951PropagationsTotal=120890
%%%mzn-stat: AverageConflictSize=19.631503369048936
%%%mzn-stat: NumUnitNogoodsLearned=0
%%%mzn-stat: AverageLearnedNogoodLength=53.23150537742386
%%%mzn-stat: AverageBacktrackAmount=0
%%%mzn-stat: AverageLbd=25.449042507255253
%%%mzn-stat: 2AutonomousSearchNumBackupCalled=13429
%%%mzn-stat: 2AutonomousSearchNumPredicatesRemoved=0
%%%mzn-stat: 2AutonomousSearchNumCalls=13810
%%%mzn-stat: 2AutonomousSearchNumPredicatesAdded=15541
%%%mzn-stat: 2AutonomousSearchAverageSizeOfHeap=75.66089790007241
%%%mzn-stat: 2AutonomousSearchNumAssignedPredicatesEncountered=46415
%%%mzn-stat-end
maxleg = 281;
succ = array1d(1..100,[2, 5, 7, 11, 27, 18, 6, 10, 3, 14, 13, 9, 23, 37, 1, 17, 12, 15, 21, 8, 30, 16, 42, 34, 20, 4, 29, 22, 36, 40, 25, 28, 52, 35, 38, 58, 46, 47, 31, 41, 44, 24, 19, 50, 32, 49, 57, 60, 26, 61, 56, 51, 54, 81, 39, 59, 43, 69, 65, 71, 82, 53, 66, 73, 68, 55, 63, 67, 70, 72, 83, 76, 48, 64, 74, 96, 45, 87, 90, 93, 91, 98, 86, 80, 75, 89, 79, 85, 62, 97, 92, 84, 95, 78, 94, 33, 99, 100, 77, 88]);
% time elapsed: 59.18 s
----------
%%%mzn-stat: initTime=0.052953847
%%%mzn-stat: objective=277
%%%mzn-stat: nodes=197654
%%%mzn-stat: restarts=2
%%%mzn-stat: peakDepth=1664
%%%mzn-stat: solveTime=85.622780764
%%%mzn-stat: variables=2474
%%%mzn-stat: propagators=6992
%%%mzn-stat: failures=157414
%%%mzn-stat: propagations=103651742
%%%mzn-stat: nogoods=157414
%%%mzn-stat: numAtomicConstraintsPropagated=0
%%%mzn-stat: circuitNumber4951PropagationsThatFoundConflict=3754
%%%mzn-stat: circuitNumber4951TotalFixedEdgesAtConflict=328409
%%%mzn-stat: circuitNumber4951NumberOfConflicts=3754
%%%mzn-stat: circuitNumber4951PropagationsThatPruned=48422
%%%mzn-stat: circuitNumber4951PropagationsTotal=179439
%%%mzn-stat: AverageConflictSize=21.726167939319247
%%%mzn-stat: NumUnitNogoodsLearned=0
%%%mzn-stat: AverageLearnedNogoodLength=56.95925394183491
%%%mzn-stat: AverageBacktrackAmount=0
%%%mzn-stat: AverageLbd=27.827042067414588
%%%mzn-stat: 2AutonomousSearchNumBackupCalled=14843
%%%mzn-stat: 2AutonomousSearchNumPredicatesRemoved=0
%%%mzn-stat: 2AutonomousSearchNumCalls=15225
%%%mzn-stat: 2AutonomousSearchNumPredicatesAdded=18643
%%%mzn-stat: 2AutonomousSearchAverageSizeOfHeap=68.99093596059113
%%%mzn-stat: 2AutonomousSearchNumAssignedPredicatesEncountered=51925
%%%mzn-stat-end
maxleg = 277;
succ = array1d(1..100,[2, 5, 7, 11, 27, 18, 6, 10, 3, 14, 13, 9, 23, 37, 1, 17, 12, 15, 21, 8, 30, 16, 42, 34, 20, 4, 29, 22, 36, 40, 25, 28, 52, 35, 38, 58, 46, 47, 31, 41, 44, 24, 19, 50, 32, 49, 57, 60, 26, 61, 56, 51, 54, 81, 39, 59, 43, 69, 65, 71, 82, 53, 66, 73, 68, 55, 63, 70, 76, 72, 83, 96, 48, 64, 74, 33, 45, 87, 77, 78, 91, 98, 86, 99, 75, 89, 67, 85, 62, 79, 92, 84, 80, 95, 93, 94, 90, 100, 97, 88]);
% time elapsed: 96.25 s
----------
%%%mzn-stat: initTime=0.052953847
%%%mzn-stat: objective=277
%%%mzn-stat: nodes=3301504
%%%mzn-stat: restarts=3
%%%mzn-stat: peakDepth=1664
%%%mzn-stat: solveTime=1789.7010296
%%%mzn-stat: variables=2474
%%%mzn-stat: propagators=6992
%%%mzn-stat: failures=2490119
%%%mzn-stat: propagations=1927750727
%%%mzn-stat: nogoods=2490119
%%%mzn-stat: numAtomicConstraintsPropagated=0
%%%mzn-stat: circuitNumber4951PropagationsThatFoundConflict=26226
%%%mzn-stat: circuitNumber4951TotalFixedEdgesAtConflict=2147488
%%%mzn-stat: circuitNumber4951NumberOfConflicts=26226
%%%mzn-stat: circuitNumber4951PropagationsThatPruned=915460
%%%mzn-stat: circuitNumber4951PropagationsTotal=3302610
%%%mzn-stat: AverageConflictSize=32.72214821861927
%%%mzn-stat: NumUnitNogoodsLearned=0
%%%mzn-stat: AverageLearnedNogoodLength=89.13675691804288
%%%mzn-stat: AverageBacktrackAmount=0
%%%mzn-stat: AverageLbd=43.943508322293034
%%%mzn-stat: 2AutonomousSearchNumBackupCalled=14844
%%%mzn-stat: 2AutonomousSearchNumPredicatesRemoved=0
%%%mzn-stat: 2AutonomousSearchNumCalls=15433
%%%mzn-stat: 2AutonomousSearchNumPredicatesAdded=23896
%%%mzn-stat: 2AutonomousSearchAverageSizeOfHeap=128.0189204950431
%%%mzn-stat: 2AutonomousSearchNumAssignedPredicatesEncountered=60591
%%%mzn-stat-end
